solution status: optimal solution found
objective value:                                   28
x48                                                 1 	(obj:1)
x52                                                 1 	(obj:1)
x60                                                 1 	(obj:1)
x71                                                 1 	(obj:1)
x72                                                 1 	(obj:1)
x73                                                 1 	(obj:1)
x74                                                 1 	(obj:1)
x75                                                 1 	(obj:1)
x80                                                 1 	(obj:1)
x81                                                 1 	(obj:1)
x82                                                 1 	(obj:1)
x85                                                 1 	(obj:1)
x87                                                 1 	(obj:1)
x88                                                 1 	(obj:1)
x89                                                 1 	(obj:1)
x92                                                 1 	(obj:1)
x93                                                 1 	(obj:1)
x94                                                 1 	(obj:1)
x95                                                 1 	(obj:1)
x105                                                1 	(obj:1)
x106                                                1 	(obj:1)
x107                                                1 	(obj:1)
x109                                                1 	(obj:1)
x110                                                1 	(obj:1)
x111                                                1 	(obj:1)
x112                                                1 	(obj:1)
x114                                                1 	(obj:1)
x116                                                1 	(obj:1)
thing.vertical_flush_hole_y                        13 	(obj:0)
thing.vertical_flush_hole_z                        19 	(obj:0)
thing.thing.chamber[1].thingy.v2_y                   12 	(obj:0)
thing.thing.chamber[1].thingy.v2_z                   19 	(obj:0)
thing.thing.chamber[1].thingy.r3c_y                   12 	(obj:0)
thing.thing.chamber[1].thingy.r3c_z                   20 	(obj:0)
thing.thing.chamber[0].thingy.p2_y                   16 	(obj:0)
thing.thing.chamber[0].thingy.p2_z                   17 	(obj:0)
thing.thing.chamber[0].thingy.p0_y                   16 	(obj:0)
thing.thing.chamber[0].thingy.p0_z                   19 	(obj:0)
thing.thing.chamber[2].thingy.v8_y                   15 	(obj:0)
thing.thing.chamber[2].thingy.v8_z                   19 	(obj:0)
thing.thing.chamber[2].thingy.r3c_y                   13 	(obj:0)
thing.thing.chamber[2].thingy.r3c_z                   20 	(obj:0)
thing.thing.chamber[0].thingy.r1c_y                   12 	(obj:0)
thing.thing.chamber[0].thingy.r1c_z                   17 	(obj:0)
thing.thing.chamber[2].thingy.v3_y                   16 	(obj:0)
thing.thing.chamber[2].thingy.v3_z                   21 	(obj:0)
thing.thing.chamber[2].thingy.v9_y                   13 	(obj:0)
thing.thing.chamber[2].thingy.v9_z                   18 	(obj:0)
thing.thing.chamber[2].thingy.v5_y                   15 	(obj:0)
thing.thing.chamber[2].thingy.v5_z                   20 	(obj:0)
thing.thing.chamber[2].thingy.v2_y                   14 	(obj:0)
thing.thing.chamber[2].thingy.v2_z                   22 	(obj:0)
thing.loop_exit_ctrl_hole_y                        12 	(obj:0)
thing.loop_exit_ctrl_hole_z                        14 	(obj:0)
thing.thing.chamber[1].thingy.r4c_y                   12 	(obj:0)
thing.thing.chamber[1].thingy.r4c_z                   15 	(obj:0)
thing.thing.chamber[1].thingy.v10_y                   16 	(obj:0)
thing.thing.chamber[1].thingy.v10_z                   18 	(obj:0)
thing.thing.chamber[2].thingy.v7_y                   14 	(obj:0)
thing.thing.chamber[2].thingy.v7_z                   21 	(obj:0)
thing.thing.chamber[1].thingy.v3_y                   14 	(obj:0)
thing.thing.chamber[1].thingy.v3_z                   20 	(obj:0)
thing.thing.chamber[2].thingy.v6_y                   13 	(obj:0)
thing.thing.chamber[2].thingy.v6_z                   21 	(obj:0)
thing.vertical_ctrl_hole_y                         12 	(obj:0)
thing.vertical_ctrl_hole_z                         16 	(obj:0)
thing.thing.chamber[1].thingy.v11_y                   14 	(obj:0)
thing.thing.chamber[1].thingy.v11_z                   18 	(obj:0)
thing.thing.chamber[0].thingy.v11_y                   14 	(obj:0)
thing.thing.chamber[0].thingy.v11_z                   19 	(obj:0)
thing.thing.chamber[1].thingy.r2c_y                   11 	(obj:0)
thing.thing.chamber[1].thingy.r2c_z                   17 	(obj:0)
thing.thing.chamber[2].thingy.v4_y                   12 	(obj:0)
thing.thing.chamber[2].thingy.v4_z                   18 	(obj:0)
